(set-option :produce-models true)
(declare-const input_ids_size0 Int)
(declare-const input_ids_size1 Int)
(declare-const input_ids_stride0 Int)
(declare-const input_ids_stride1 Int)
(declare-const input_ids_storage_offset Int)
(define-fun ge () Bool (>= input_ids_size0 0))
(assert ge)
(define-fun ge_1 () Bool (>= input_ids_size1 0))
(assert ge_1)
(define-fun eq () Bool (= input_ids_size0 0))
(define-fun not_ () Bool (not eq))
(assert not_)
(define-fun sub () Int (- input_ids_size0 1))
(define-fun mul () Int (* input_ids_stride0 sub))
(define-fun add () Int (+ 1 mul))
(define-fun eq_1 () Bool (= input_ids_size1 0))
(define-fun not__1 () Bool (not eq_1))
(assert not__1)
(define-fun sub_1 () Int (- input_ids_size1 1))
(define-fun mul_1 () Int (* input_ids_stride1 sub_1))
(define-fun add_1 () Int (+ add mul_1))
(define-fun mul_2 () Int (* 8 add_1))
(define-fun mul_3 () Int (* input_ids_size0 input_ids_size1))
(define-fun eq_2 () Bool (= mul_3 0))
(define-fun not__2 () Bool (not eq_2))
(assert not__2)
(define-fun eq_3 () Bool (= input_ids_size1 1))
(define-fun not__3 () Bool (not eq_3))
(assert not__3)
(define-fun eq_4 () Bool (= input_ids_stride1 1))
(assert eq_4)
(define-fun eq_5 () Bool (= input_ids_size0 1))
(assert eq_5)
(define-fun ge_2 () Bool (>= input_ids_storage_offset 0))
(assert ge_2)
(define-fun add_2 () Int (+ input_ids_storage_offset add_1))
(define-fun mul_4 () Int (* 8 add_2))
(declare-const token_type_ids__base_size0 Int)
(declare-const token_type_ids__base_size1 Int)
(declare-const token_type_ids__base_stride0 Int)
(declare-const token_type_ids__base_stride1 Int)
(declare-const token_type_ids__base_storage_offset Int)
(define-fun ge_3 () Bool (>= token_type_ids__base_size0 0))
(assert ge_3)
(define-fun ge_4 () Bool (>= token_type_ids__base_size1 0))
(assert ge_4)
(define-fun eq_6 () Bool (= token_type_ids__base_size0 0))
(define-fun not__4 () Bool (not eq_6))
(assert not__4)
(define-fun sub_2 () Int (- token_type_ids__base_size0 1))
(define-fun mul_5 () Int (* token_type_ids__base_stride0 sub_2))
(define-fun add_3 () Int (+ 1 mul_5))
(define-fun eq_7 () Bool (= token_type_ids__base_size1 0))
(define-fun not__5 () Bool (not eq_7))
(assert not__5)
(define-fun sub_3 () Int (- token_type_ids__base_size1 1))
(define-fun mul_6 () Int (* token_type_ids__base_stride1 sub_3))
(define-fun add_4 () Int (+ add_3 mul_6))
(define-fun mul_7 () Int (* 8 add_4))
(define-fun mul_8 () Int (* token_type_ids__base_size0 token_type_ids__base_size1))
(define-fun eq_8 () Bool (= mul_8 0))
(define-fun not__6 () Bool (not eq_8))
(assert not__6)
(define-fun eq_9 () Bool (= token_type_ids__base_size1 1))
(define-fun not__7 () Bool (not eq_9))
(assert not__7)
(define-fun eq_10 () Bool (= token_type_ids__base_stride1 1))
(assert eq_10)
(define-fun eq_11 () Bool (= token_type_ids__base_size0 1))
(assert eq_11)
(define-fun ge_5 () Bool (>= token_type_ids__base_storage_offset 0))
(assert ge_5)
(define-fun add_5 () Int (+ token_type_ids__base_storage_offset add_4))
(define-fun mul_9 () Int (* 8 add_5))
(declare-const token_type_ids_size0 Int)
(declare-const token_type_ids_size1 Int)
(declare-const token_type_ids_stride0 Int)
(declare-const token_type_ids_stride1 Int)
(declare-const token_type_ids_storage_offset Int)
(define-fun mul_10 () Int (* token_type_ids_size0 token_type_ids_size1))
(define-fun eq_12 () Bool (= mul_10 0))
(define-fun not__8 () Bool (not eq_12))
(assert not__8)
(define-fun eq_13 () Bool (= token_type_ids_size1 1))
(define-fun not__9 () Bool (not eq_13))
(assert not__9)
(define-fun eq_14 () Bool (= token_type_ids_stride1 1))
(assert eq_14)
(define-fun eq_15 () Bool (= token_type_ids_size0 1))
(assert eq_15)
(define-fun lt () Bool (< input_ids_size1 0))
(define-fun not__10 () Bool (not lt))
(assert not__10)
(define-fun lt_1 () Bool (< input_ids_size0 0))
(define-fun not__11 () Bool (not lt_1))
(assert not__11)
(define-fun eq_16 () Bool (= input_ids_size0 input_ids_size0))
(assert eq_16)
(define-fun eq_17 () Bool (= input_ids_size1 input_ids_size1))
(assert eq_17)
(define-fun eq_18 () Bool (= input_ids_stride1 0))
(define-fun not__12 () Bool (not eq_18))
(assert not__12)
(define-fun eq_19 () Bool (= input_ids_stride0 0))
(define-fun not__13 () Bool (not eq_19))
(assert not__13)
(define-fun lt_2 () Bool (< input_ids_stride1 input_ids_stride0))
(assert lt_2)
(define-fun mul_11 () Int (* input_ids_size1 input_ids_size0))
(define-fun mul_12 () Int (* input_ids_size1 sub))
(define-fun add_6 () Int (+ 1 mul_12))
(define-fun add_7 () Int (+ add_6 sub_1))
(define-fun lt_3 () Bool (< mul_3 2))
(define-fun not__14 () Bool (not lt_3))
(assert not__14)
(define-fun mul_13 () Int (* 4 add_7))
(define-fun add_8 () Int (+ 1 sub_1))
(define-fun mul_14 () Int (* 8 add_8))
(define-fun eq_20 () Bool (= input_ids_size1 -1))
(define-fun not__15 () Bool (not eq_20))
(assert not__15)
(define-fun mul_15 () Int (* input_ids_size1 input_ids_size1))
(define-fun eq_21 () Bool (= mul_15 0))
(define-fun not__16 () Bool (not eq_21))
(assert not__16)
(define-fun lt_4 () Bool (< input_ids_size1 2))
(define-fun not__17 () Bool (not lt_4))
(assert not__17)
(define-fun eq_22 () Bool (= 0 input_ids_size1))
(define-fun not__18 () Bool (not eq_22))
(assert not__18)
(define-fun mul_16 () Int (* input_ids_size1 sub_1))
(define-fun add_9 () Int (+ 1 mul_16))
(define-fun add_10 () Int (+ add_9 sub_1))
(define-fun mul_17 () Int (* mul_3 input_ids_size1))
(define-fun eq_23 () Bool (= mul_17 0))
(define-fun not__19 () Bool (not eq_23))
(assert not__19)
(define-fun eq_24 () Bool (= input_ids_size0 -1))
(define-fun not__20 () Bool (not eq_24))
(assert not__20)
(define-fun lt_5 () Bool (< input_ids_size0 2))
(assert lt_5)
(define-fun gt () Bool (> input_ids_size1 1))
(assert gt)
(define-fun lt_6 () Bool (< input_ids_size1 mul_15))
(assert lt_6)
(define-fun mul_18 () Int (* mul_15 input_ids_size0))
(define-fun mul_19 () Int (* mul_15 sub))
(define-fun add_11 () Int (+ 1 mul_19))
(define-fun add_12 () Int (+ add_11 mul_16))
(define-fun add_13 () Int (+ add_12 sub_1))
(define-fun mul_20 () Int (* 4 add_13))
(define-fun lt_7 () Bool (< mul_17 2))
(define-fun not__21 () Bool (not lt_7))
(assert not__21)
(define-fun mul_21 () Int (* 8 add_13))
(define-fun mul_22 () Int (* 8 add_7))
(define-fun mul_23 () Int (* 768 input_ids_size1))
(define-fun mul_24 () Int (* mul_23 input_ids_size0))
(define-fun mul_25 () Int (* mul_23 sub))
(define-fun add_14 () Int (+ 1 mul_25))
(define-fun mul_26 () Int (* 768 sub_1))
(define-fun add_15 () Int (+ add_14 mul_26))
(define-fun add_16 () Int (+ add_15 767))
(define-fun mul_27 () Int (* 4 add_16))
(define-fun mul_28 () Int (* mul_3 768))
(define-fun eq_25 () Bool (= mul_28 0))
(define-fun not__22 () Bool (not eq_25))
(assert not__22)
(define-fun lt_8 () Bool (< token_type_ids_size1 0))
(define-fun not__23 () Bool (not lt_8))
(assert not__23)
(define-fun lt_9 () Bool (< token_type_ids_size0 0))
(define-fun not__24 () Bool (not lt_9))
(assert not__24)
(define-fun eq_26 () Bool (= token_type_ids_size0 token_type_ids_size0))
(assert eq_26)
(define-fun eq_27 () Bool (= token_type_ids_size1 token_type_ids_size1))
(assert eq_27)
(define-fun ge_6 () Bool (>= token_type_ids_size0 0))
(assert ge_6)
(define-fun ge_7 () Bool (>= token_type_ids_size1 0))
(assert ge_7)
(define-fun eq_28 () Bool (= token_type_ids_size1 0))
(define-fun not__25 () Bool (not eq_28))
(assert not__25)
(define-fun mul_29 () Int (* 768 token_type_ids_size1))
(define-fun eq_29 () Bool (= token_type_ids_size0 0))
(define-fun not__26 () Bool (not eq_29))
(assert not__26)
(define-fun mul_30 () Int (* mul_29 token_type_ids_size0))
(define-fun sub_4 () Int (- token_type_ids_size0 1))
(define-fun mul_31 () Int (* mul_29 sub_4))
(define-fun add_17 () Int (+ 1 mul_31))
(define-fun sub_5 () Int (- token_type_ids_size1 1))
(define-fun mul_32 () Int (* 768 sub_5))
(define-fun add_18 () Int (+ add_17 mul_32))
(define-fun add_19 () Int (+ add_18 767))
(define-fun mul_33 () Int (* 4 add_19))
(define-fun mul_34 () Int (* mul_10 768))
(define-fun eq_30 () Bool (= mul_34 0))
(define-fun not__27 () Bool (not eq_30))
(assert not__27)
(define-fun eq_31 () Bool (= input_ids_size1 token_type_ids_size1))
(assert eq_31)
(define-fun eq_32 () Bool (= input_ids_size0 token_type_ids_size0))
(assert eq_32)
(define-fun eq_33 () Bool (= token_type_ids_size1 input_ids_size1))
(assert eq_33)
(define-fun eq_34 () Bool (= mul_23 0))
(define-fun not__28 () Bool (not eq_34))
(assert not__28)
(define-fun gt_1 () Bool (> mul_23 768))
(assert gt_1)
(define-fun lt_10 () Bool (< input_ids_size1 1))
(define-fun not__29 () Bool (not lt_10))
(assert not__29)
(define-fun eq_35 () Bool (= mul_4 0))
(define-fun not__30 () Bool (not eq_35))
(assert not__30)
(define-fun eq_36 () Bool (= mul_9 0))
(define-fun not__31 () Bool (not eq_36))
(assert not__31)
(define-fun eq_37 () Bool (= mul_27 0))
(define-fun not__32 () Bool (not eq_37))
(assert not__32)
(define-fun output0_size0 () Int input_ids_size0)
(define-fun output0_size1 () Int input_ids_size1)
(define-fun output0_size2 () Int 768)
(define-fun output0_stride0 () Int mul_23)
(define-fun output0_stride1 () Int 768)
(define-fun output0_stride2 () Int 1)
(define-fun output0_storage_offset () Int 0)
(check-sat)
(get-model)
